c FILE /home/rafael/Documents/HappySet/MIHS/inputs/happygen/output/graph_scale_free_k5_p0.4_v50_20241127_082446.txt
c SOURCE This is a scale-free graph formed for the happy graph colouring problem.
c DESCRIPTION It was generated using the problem generator of Rhyd Lewis
c
c GRAPH STATS
c Seed                             = -10621804
c Number of Nodes                  = 50
c Number of colours k              = 5
c Number of pre-assignments        = 20
c Number of links per new node     = 5
c Density                          = 0.191837
c 
c The degrees of nodes 1 to 50, respectively, are as follows 
c [29, 26, 19, 19, 18, 16, 14, 14, 14, 14, 13, 11, 10, 10, 10, 10, 10, 9, 9, 9, 9, 8, 8, 8, 7, 7, 
c  7, 7, 7, 7, 7, 7, 7, 6, 6, 6, 6, 6, 5, 5, 5, 5, 5, 5, 5, 5, 5, 5, 5, 5] 
c  
p edge 50 235 5
e 1 2
e 1 3
e 1 4
e 1 5
e 1 6
e 1 7
e 1 9
e 1 10
e 1 12
e 1 13
e 1 14
e 1 15
e 1 18
e 1 19
e 1 22
e 1 23
e 1 25
e 1 27
e 1 29
e 1 32
e 1 33
e 1 36
e 1 38
e 1 40
e 1 42
e 1 44
e 1 46
e 1 48
e 1 50
e 2 3
e 2 4
e 2 5
e 2 6
e 2 7
e 2 9
e 2 10
e 2 11
e 2 12
e 2 15
e 2 18
e 2 21
e 2 22
e 2 23
e 2 25
e 2 26
e 2 28
e 2 29
e 2 34
e 2 35
e 2 43
e 2 46
e 2 48
e 2 49
e 2 50
e 3 4
e 3 5
e 3 6
e 3 7
e 3 9
e 3 11
e 3 15
e 3 16
e 3 19
e 3 22
e 3 27
e 3 32
e 3 36
e 3 37
e 3 39
e 3 47
e 3 50
e 4 5
e 4 6
e 4 8
e 4 10
e 4 11
e 4 15
e 4 18
e 4 20
e 4 22
e 4 25
e 4 26
e 4 33
e 4 35
e 4 41
e 4 43
e 4 44
e 5 6
e 5 7
e 5 8
e 5 9
e 5 11
e 5 12
e 5 13
e 5 14
e 5 18
e 5 19
e 5 33
e 5 36
e 5 42
e 5 50
e 6 7
e 6 8
e 6 13
e 6 14
e 6 17
e 6 18
e 6 22
e 6 25
e 6 29
e 6 31
e 6 47
e 7 8
e 7 11
e 7 14
e 7 21
e 7 24
e 7 27
e 7 44
e 7 46
e 7 48
e 8 9
e 8 10
e 8 13
e 8 22
e 8 23
e 8 27
e 8 39
e 8 42
e 8 47
e 8 49
e 9 12
e 9 13
e 9 26
e 9 29
e 9 30
e 9 33
e 9 46
e 9 47
e 9 49
e 10 19
e 10 23
e 10 27
e 10 30
e 10 31
e 10 33
e 10 34
e 10 38
e 10 40
e 10 43
e 11 12
e 11 20
e 11 23
e 11 26
e 11 28
e 11 38
e 11 39
e 11 40
e 12 17
e 12 19
e 12 24
e 12 26
e 12 30
e 12 40
e 13 15
e 13 23
e 13 25
e 13 43
e 13 45
e 14 16
e 14 18
e 14 28
e 14 29
e 14 30
e 14 39
e 15 16
e 15 28
e 15 34
e 15 35
e 15 41
e 16 18
e 16 24
e 16 27
e 16 28
e 16 44
e 16 46
e 16 49
e 17 19
e 17 20
e 17 23
e 17 28
e 17 34
e 17 37
e 17 40
e 17 45
e 18 39
e 18 48
e 19 21
e 19 30
e 19 38
e 20 22
e 20 29
e 20 32
e 20 34
e 20 36
e 20 41
e 21 23
e 21 26
e 21 31
e 21 32
e 21 41
e 21 43
e 22 37
e 24 25
e 24 26
e 24 31
e 24 32
e 24 48
e 25 41
e 27 45
e 28 35
e 29 31
e 30 35
e 30 37
e 31 36
e 31 50
e 32 37
e 32 49
e 33 38
e 33 45
e 34 42
e 35 42
e 36 47
e 37 44
e 38 45
n 6 4
n 19 3
n 20 2
n 23 4
n 24 4
n 25 4
n 26 4
n 27 3
n 28 1
n 31 4
n 33 3
n 34 2
n 39 2
n 40 5
n 42 2
n 43 5
n 44 4
n 45 3
n 49 5
n 50 4
